Route #1: 1 42 21 54 55 19 24 2 1
Route #2: 1 53 18 56 32 46 14 57 20 36 31 1
Route #3: 1 59 33 43 28 6 4 30 40 15 1
Route #4: 1 34 66 9 41 5 16 61 22 37 1
Route #5: 1 3 11 27 47 64 60 1
Route #6: 1 10 50 25 13 7 51 1
Route #7: 1 29 63 38 49 26 17 62 1
Route #8: 1 35 52 44 23 39 58 8 1
Route #9: 1 48 45 65 12 1
cost 1466
